(set-logic ALL)
(declare-const BAV1 Bool)
(declare-fun x () String)
(declare-fun y () String)
(declare-fun z () String)
(assert (not (= (str.rev (str.++ x y)) (str.rev (str.++ x z)))))
(assert (= BAV1 (= (str.rev (str.++ x y)) (str.rev (str.++ x z)))))
(check-sat)
(get-model)